59 92 98 16 44 91 100 93 
33 29 79 78 34 35 77 
83 45 82 8 46 
53 
52 88 7 18 
21 73 75 22 41 74 58 
63 90 20 66 32 70 
40 87 97 13 
42 14 38 86 84 17 60 89 
31 62 11 19 10 
95 5 61 85 99 96 
65 71 9 81 50 1 
94 6 
28 76 12 26 68 24 80 
2 15 57 43 37 
27 69 30 51 3 54 55 25 
47 36 64 49 48 
72 39 23 67 56 4 
